(set-logic ALL)
(declare-fun var0 () String)
(assert (str.in_re var0 (re.++ (re.union (re.* (str.to_re "000")) (re.* (str.to_re "11"))) (re.++ (re.* (re.* (str.to_re "22"))) (re.++ (re.union (re.* (str.to_re "3")) (re.* (str.to_re "444"))) (re.++ (re.union (re.* (str.to_re "555")) (re.* (str.to_re "666"))) (re.++ (re.union (re.+ (str.to_re "777")) (re.+ (str.to_re "88"))) (re.++ (re.+ (re.* (str.to_re "99"))) (re.++ (re.union (re.+ (str.to_re "aa")) (re.+ (str.to_re "bbb"))) (re.++ (re.* (re.* (str.to_re "ccc"))) (re.++ (re.* (re.union (str.to_re "dd") (str.to_re "e"))) (re.++ (re.+ (re.union (str.to_re "f") (str.to_re "g"))) (re.++ (re.+ (re.+ (str.to_re "hh"))) (re.++ (re.union (re.+ (str.to_re "ii")) (re.+ (str.to_re "jj"))) (re.++ (re.union (re.union (str.to_re "kk") (str.to_re "l")) (re.union (str.to_re "m") (str.to_re "nnn"))) (re.++ (re.* (re.* (str.to_re "oo"))) (re.++ (re.* (re.union (str.to_re "ppp") (str.to_re "qq"))) (re.++ (re.union (re.+ (str.to_re "rrr")) (re.+ (str.to_re "sss"))) (re.++ (re.+ (re.+ (str.to_re "t"))) (re.++ (re.+ (re.union (str.to_re "uuu") (str.to_re "vvv"))) (re.++ (re.* (re.* (str.to_re "ww"))) (re.++ (re.union (re.union (str.to_re "xxx") (str.to_re "yyy")) (re.union (str.to_re "zzz") (str.to_re "A"))) (re.+ (re.+ (str.to_re "BB")))))))))))))))))))))))))
(check-sat)